capsules/tseitin_n60.cnf
c 3-regular Tseitin expander on 60 vertices
p cnf 90 240
1 2 3 0
-1 -2 3 0
-1 2 -3 0
1 -2 -3 0
-1 4 5 0
1 -4 5 0
1 4 -5 0
-1 -4 -5 0
-4 6 7 0
4 -6 7 0
4 6 -7 0
-4 -6 -7 0
-6 8 9 0
6 -8 9 0
6 8 -9 0
-6 -8 -9 0
-8 10 11 0
8 -10 11 0
8 10 -11 0
-8 -10 -11 0
-10 12 13 0
10 -12 13 0
10 12 -13 0
-10 -12 -13 0
-12 14 15 0
12 -14 15 0
12 14 -15 0
-12 -14 -15 0
-14 16 17 0
14 -16 17 0
14 16 -17 0
-14 -16 -17 0
-16 18 19 0
16 -18 19 0
16 18 -19 0
-16 -18 -19 0
-18 20 21 0
18 -20 21 0
18 20 -21 0
-18 -20 -21 0
-20 22 23 0
20 -22 23 0
20 22 -23 0
-20 -22 -23 0
-22 24 25 0
22 -24 25 0
22 24 -25 0
-22 -24 -25 0
-24 26 27 0
24 -26 27 0
24 26 -27 0
-24 -26 -27 0
-26 28 29 0
26 -28 29 0
26 28 -29 0
-26 -28 -29 0
-28 30 31 0
28 -30 31 0
28 30 -31 0
-28 -30 -31 0
-30 32 33 0
30 -32 33 0
30 32 -33 0
-30 -32 -33 0
-32 34 35 0
32 -34 35 0
32 34 -35 0
-32 -34 -35 0
-34 36 37 0
34 -36 37 0
34 36 -37 0
-34 -36 -37 0
-36 38 39 0
36 -38 39 0
36 38 -39 0
-36 -38 -39 0
-38 40 41 0
38 -40 41 0
38 40 -41 0
-38 -40 -41 0
-40 42 43 0
40 -42 43 0
40 42 -43 0
-40 -42 -43 0
-42 44 45 0
42 -44 45 0
42 44 -45 0
-42 -44 -45 0
-44 46 47 0
44 -46 47 0
44 46 -47 0
-44 -46 -47 0
-46 48 49 0
46 -48 49 0
46 48 -49 0
-46 -48 -49 0
-48 50 51 0
48 -50 51 0
48 50 -51 0
-48 -50 -51 0
-50 52 53 0
50 -52 53 0
50 52 -53 0
-50 -52 -53 0
-52 54 55 0
52 -54 55 0
52 54 -55 0
-52 -54 -55 0
-54 56 57 0
54 -56 57 0
54 56 -57 0
-54 -56 -57 0
-56 58 59 0
56 -58 59 0
56 58 -59 0
-56 -58 -59 0
-58 60 61 0
58 -60 61 0
58 60 -61 0
-58 -60 -61 0
-2 60 62 0
2 -60 62 0
2 60 -62 0
-2 -60 -62 0
-5 62 63 0
5 -62 63 0
5 62 -63 0
-5 -62 -63 0
-7 63 64 0
7 -63 64 0
7 63 -64 0
-7 -63 -64 0
-9 64 65 0
9 -64 65 0
9 64 -65 0
-9 -64 -65 0
-11 65 66 0
11 -65 66 0
11 65 -66 0
-11 -65 -66 0
-13 66 67 0
13 -66 67 0
13 66 -67 0
-13 -66 -67 0
-15 67 68 0
15 -67 68 0
15 67 -68 0
-15 -67 -68 0
-17 68 69 0
17 -68 69 0
17 68 -69 0
-17 -68 -69 0
-19 69 70 0
19 -69 70 0
19 69 -70 0
-19 -69 -70 0
-21 70 71 0
21 -70 71 0
21 70 -71 0
-21 -70 -71 0
-23 71 72 0
23 -71 72 0
23 71 -72 0
-23 -71 -72 0
-25 72 73 0
25 -72 73 0
25 72 -73 0
-25 -72 -73 0
-27 73 74 0
27 -73 74 0
27 73 -74 0
-27 -73 -74 0
-29 74 75 0
29 -74 75 0
29 74 -75 0
-29 -74 -75 0
-31 75 76 0
31 -75 76 0
31 75 -76 0
-31 -75 -76 0
-33 76 77 0
33 -76 77 0
33 76 -77 0
-33 -76 -77 0
-35 77 78 0
35 -77 78 0
35 77 -78 0
-35 -77 -78 0
-37 78 79 0
37 -78 79 0
37 78 -79 0
-37 -78 -79 0
-39 79 80 0
39 -79 80 0
39 79 -80 0
-39 -79 -80 0
-41 80 81 0
41 -80 81 0
41 80 -81 0
-41 -80 -81 0
-43 81 82 0
43 -81 82 0
43 81 -82 0
-43 -81 -82 0
-45 82 83 0
45 -82 83 0
45 82 -83 0
-45 -82 -83 0
-47 83 84 0
47 -83 84 0
47 83 -84 0
-47 -83 -84 0
-49 84 85 0
49 -84 85 0
49 84 -85 0
-49 -84 -85 0
-51 85 86 0
51 -85 86 0
51 85 -86 0
-51 -85 -86 0
-53 86 87 0
53 -86 87 0
53 86 -87 0
-53 -86 -87 0
-55 87 88 0
55 -87 88 0
55 87 -88 0
-55 -87 -88 0
-57 88 89 0
57 -88 89 0
57 88 -89 0
-57 -88 -89 0
-59 89 90 0
59 -89 90 0
59 89 -90 0
-59 -89 -90 0
-3 61 90 0
3 -61 90 0
3 61 -90 0
-3 -61 -90 0
