capsules/tseitin_n60.drat
TSEITIN-ODD-CHARGE-PROOF
f6b265280cca829701bbd5674cdfa604b9b237029fef7796ae8a94932dc0955a
